
Gurobi 9.5.1 (linux64) logging started Mon Jun  6 03:06:22 2022

Set parameter LogFile to value "../results/logs/log_soc-catster.e_21_250_2022_06_06_01_05.log"
Gurobi Optimizer version 9.5.1 build v9.5.1rc2 (linux64)
Thread count: 8 physical cores, 8 logical processors, using up to 8 threads
Optimize a model with 4007 rows, 299368 columns and 167530 nonzeros
Model fingerprint: 0xfa2c49fd
Variable types: 0 continuous, 299368 integer (299368 binary)
Coefficient statistics:
  Matrix range     [1e+00, 2e+01]
  Objective range  [1e+00, 1e+00]
  Bounds range     [1e+00, 1e+00]
  RHS range        [1e+00, 2e+02]
Found heuristic solution: objective 78945.000000
Presolve removed 2747 rows and 297387 columns
Presolve time: 0.12s
Presolved: 1260 rows, 1981 columns, 6294 nonzeros
Found heuristic solution: objective 79330.000000
Variable types: 0 continuous, 1981 integer (1599 binary)

Root relaxation: objective 7.966885e+04, 853 iterations, 0.00 seconds (0.00 work units)

    Nodes    |    Current Node    |     Objective Bounds      |     Work
 Expl Unexpl |  Obj  Depth IntInf | Incumbent    BestBd   Gap | It/Node Time

     0     0 79668.8536    0  434 79330.0000 79668.8536  0.43%     -    0s
H    0     0                    79420.000000 79668.8536  0.31%     -    0s
H    0     0                    79422.000000 79668.8536  0.31%     -    0s
H    0     0                    79476.000000 79668.8536  0.24%     -    0s
H    0     0                    79513.000000 79576.5898  0.08%     -    0s
     0     0 79576.5583    0  149 79513.0000 79576.5583  0.08%     -    0s
H    0     0                    79515.000000 79576.5583  0.08%     -    0s
H    0     0                    79548.000000 79576.5583  0.04%     -    0s
     0     0 79571.8418    0  127 79548.0000 79571.8418  0.03%     -    0s
     0     0 79565.0319    0  121 79548.0000 79565.0319  0.02%     -    0s
     0     0 79565.0319    0  121 79548.0000 79565.0319  0.02%     -    0s
H    0     0                    79552.000000 79565.0319  0.02%     -    0s
     0     0 79563.8702    0   80 79552.0000 79563.8702  0.01%     -    0s
     0     0 79563.1886    0   43 79552.0000 79563.1886  0.01%     -    0s
     0     0 79563.0945    0   44 79552.0000 79563.0945  0.01%     -    0s
     0     0 79563.0867    0   43 79552.0000 79563.0867  0.01%     -    0s
H    0     0                    79559.000000 79563.0867  0.01%     -    0s
     0     0 79562.0497    0   46 79559.0000 79562.0497  0.00%     -    0s
     0     0 79561.8384    0   44 79559.0000 79561.8384  0.00%     -    0s
     0     0 79561.7659    0   49 79559.0000 79561.7659  0.00%     -    0s
H    0     0                    79560.000000 79561.7659  0.00%     -    0s
     0     0 79561.2853    0   26 79560.0000 79561.2853  0.00%     -    0s
     0     0 79561.2853    0   53 79560.0000 79561.2853  0.00%     -    0s
     0     0 79561.2853    0   30 79560.0000 79561.2853  0.00%     -    0s
     0     0 79561.2853    0   26 79560.0000 79561.2853  0.00%     -    0s
     0     0 79561.2853    0   19 79560.0000 79561.2853  0.00%     -    0s
     0     0 79561.2853    0   15 79560.0000 79561.2853  0.00%     -    0s
H    0     0                    79561.000000 79561.2853  0.00%     -    0s
     0     0 79561.0000    0   11 79561.0000 79561.0000  0.00%     -    0s

Cutting planes:
  Gomory: 13
  Lift-and-project: 1
  Implied bound: 3
  MIR: 22
  StrongCG: 3
  Flow cover: 2
  GUB cover: 4
  Zero half: 3
  RLT: 5
  Relax-and-lift: 4

Explored 1 nodes (1987 simplex iterations) in 0.49 seconds (0.27 work units)
Thread count was 8 (of 8 available processors)

Solution count 10: 79561 79560 79560 ... 79513

Optimal solution found (tolerance 0.00e+00)
Best objective 7.956100000000e+04, best bound 7.956100000000e+04, gap 0.0000%
